VRPTWMS/instances/mip/fuel/4/N4-C_DV100-C_SV30_F6_4_No_1.log

Gurobi 6.0.4 (win64) logging started 06/21/15 19:06:15

Read LP format model from file C:\MT\repository\VRPTWMS\instances\mip\fuel\N4-C_DV100-C_SV30_F6_4_No_1.lp
Reading time = 0.00 seconds
(null): 129 rows, 76 columns, 459 nonzeros
Optimize a model with 129 rows, 76 columns and 459 nonzeros
Model has 80 quadratic constraints
Coefficient statistics:
  Matrix range    [1e+00, 1e+06]
  Objective range [9e+04, 1e+07]
  Bounds range    [1e+00, 1e+06]
  RHS range       [1e+00, 1e+06]
Presolve removed 27 rows and 13 columns
Presolve time: 0.03s
Presolved: 238 rows, 136 columns, 999 nonzeros
Variable types: 63 continuous, 73 integer (51 binary)
Found heuristic solution: objective 4.142100e+07

Root relaxation: objective 1.080338e+07, 30 iterations, 0.00 seconds

    Nodes    |    Current Node    |     Objective Bounds      |     Work
 Expl Unexpl |  Obj  Depth IntInf | Incumbent    BestBd   Gap | It/Node Time

     0     0 1.0803e+07    0   10 4.1421e+07 1.0803e+07  73.9%     -    0s
H    0     0                    2.092400e+07 1.0803e+07  48.4%     -    0s
     0     0 1.0991e+07    0    4 2.0924e+07 1.0991e+07  47.5%     -    0s
     0     0 1.0992e+07    0   11 2.0924e+07 1.0992e+07  47.5%     -    0s
     0     0 1.1003e+07    0   11 2.0924e+07 1.1003e+07  47.4%     -    0s
     0     0 1.1003e+07    0   11 2.0924e+07 1.1003e+07  47.4%     -    0s
     0     0 1.1003e+07    0    8 2.0924e+07 1.1003e+07  47.4%     -    0s
     0     0 1.1003e+07    0    9 2.0924e+07 1.1003e+07  47.4%     -    0s
     0     0 1.1003e+07    0    8 2.0924e+07 1.1003e+07  47.4%     -    0s
     0     0 1.1003e+07    0    9 2.0924e+07 1.1003e+07  47.4%     -    0s
     0     0 1.1003e+07    0    9 2.0924e+07 1.1003e+07  47.4%     -    0s
     0     0 1.1003e+07    0    6 2.0924e+07 1.1003e+07  47.4%     -    0s
     0     0 1.1003e+07    0   11 2.0924e+07 1.1003e+07  47.4%     -    0s
     0     0 1.1029e+07    0   19 2.0924e+07 1.1029e+07  47.3%     -    0s
     0     0 1.1040e+07    0   17 2.0924e+07 1.1040e+07  47.2%     -    0s
     0     0 1.1040e+07    0   18 2.0924e+07 1.1040e+07  47.2%     -    0s
     0     0 1.1040e+07    0   18 2.0924e+07 1.1040e+07  47.2%     -    0s
     0     2 1.1040e+07    0   18 2.0924e+07 1.1040e+07  47.2%     -    0s

Cutting planes:
  Gomory: 1
  Cover: 3
  Implied bound: 6
  Clique: 1
  MIR: 5
  Mod-K: 1

Explored 59 nodes (957 simplex iterations) in 0.11 seconds
Thread count was 2 (of 4 available processors)

Optimal solution found (tolerance 1.00e-04)
Best objective 2.092400000000e+07, best bound 2.092400000000e+07, gap 0.0%
k_c1	979999.0
k_c2	1000000.0
k_c3	40000.0
k_c4	959999.0
k_dN	-0.0
o_1	0.0
o_2	0.0
o_3	0.0
o_4	0.0
p_1	0.0
p_2	0.0
p_3	0.0
p_4	0.0
phi_c1	9580.0
phi_c2	15293.0
phi_c3	9319.0
phi_c4	45556.0
phi_dN	0.0
pi_c1	0.0
pi_c2	0.0
pi_c3	0.0
pi_c4	0.0
pi_dN	-0.0
tauD_c1	400000.0
tauD_c2	328649.0
tauD_c3	500000.0
tauD_c4	100000.0
tauD_d0	-0.0
tauD_dN	1000000.0
tauS_c1	0.0
tauS_c2	843674.0
tauS_c3	0.0
tauS_c4	0.0
tauS_d0	-0.0
tauS_dN	29600.0
x_c1_dN	1.0
x_c2_c1	1.0
x_c3_dN	1.0
x_c4_c3	1.0
x_d0_c2	1.0
x_d0_c4	1.0
